1675.61
66 43 16 26 44 52 56 74 47 95 84 46 9 7 6 82 71 83 99 57 54 31 3 42 4 19 49 15 0 22 73 72 70 97 29 45 90 67 33 65 91 68 39 88 87 1 40 89 98 92 34 12 93 50 85 18 81 86 17 80 24 76 79 77 78 28 10 62 59 13 53 51 48 35 94 64 37 23 100 41 21 75 38 25 96 11 27 8 36 60 5 14 69 32 30 20 61 63 2 55 58 
